8
0, 515, 423, 420, 529, 431, 825, 493
515, 0, 598, 537, 271, 192, 357, 224
423, 598, 0, 810, 402, 652, 735, 412
420, 537, 810, 0, 726, 347, 892, 674
529, 271, 402, 726, 0, 423, 339, 53
431, 192, 652, 347, 423, 0, 545, 371
825, 357, 735, 892, 339, 545, 0, 350
493, 224, 412, 674, 53, 371, 350, 0
